c IN1002 Introduction to Algorithms!
c top secret ID string d1d19c6346
c 4 variables and 6 clauses
p cnf 4 6
c each line is a clause, 0 marks the end
2 1 -3 0
1 -4 -3 0
3 -3 2 0
-1 4 4 0
4 4 1 0
-3 4 1 0
c Good luck!
